NAME: template_#image970.png
TYPE: TSP
DIMENSION: 49
EDGE_WEIGHT_TYPE: EUC_2D
NODE_COORD_SECTION
1 838.5 22.5
2 872.5 22.5
3 906.5 22.5
4 940.5 22.5
5 329.5 56.5
6 363.5 56.5
7 397.5 56.5
8 431.5 56.5
9 465.5 56.5
10 499.5 56.5
11 533.5 56.5
12 770.5 56.5
13 804.5 56.5
14 838.5 56.5
15 59.5 89.5
16 296.5 89.5
17 330.5 89.5
18 703.5 89.5
19 737.5 89.5
20 771.5 89.5
21 59.5 123.5
22 93.5 123.5
23 771.5 123.5
24 805.5 123.5
25 839.5 123.5
26 92.5 157.5
27 126.5 157.5
28 160.5 157.5
29 838.5 157.5
30 703.5 225.5
31 736.5 225.5
32 770.5 225.5
33 770.5 259.5
34 804.5 259.5
35 804.5 293.5
36 838.5 293.5
37 838.5 327.5
38 567.5 530.5
39 601.5 530.5
40 635.5 530.5
41 465.5 564.5
42 499.5 564.5
43 533.5 564.5
44 567.5 564.5
45 635.5 564.5
46 669.5 564.5
47 432.5 597.5
48 466.5 597.5
49 432.5 631.5
EOF
